c A SAT instance generated from a 3-CNF formula that had 99 clauses and 13 variables
p cnf 13 99
-9 -4 5 0
10 -13 9 0
4 5 -6 0
-12 4 11 0
-5 8 -7 0
10 13 1 0
8 9 -2 0
-2 10 -4 0
-2 -4 7 0
-12 3 6 0
8 -1 -5 0
6 -13 -10 0
-7 10 -13 0
-5 9 -8 0
5 13 4 0
8 11 -4 0
2 -10 -3 0
11 10 -12 0
12 -7 9 0
13 -7 8 0
2 4 13 0
-9 -7 6 0
-3 -4 -5 0
-7 5 -3 0
7 13 1 0
2 -11 -4 0
-8 10 5 0
12 -9 4 0
11 5 6 0
10 9 7 0
6 10 -11 0
4 -5 -8 0
-11 4 6 0
1 10 9 0
-6 -13 -10 0
-8 11 -5 0
-8 -2 7 0
3 -11 -9 0
-9 8 6 0
12 8 -3 0
-2 11 -13 0
-1 -12 -4 0
-5 6 -4 0
7 -10 9 0
-6 -9 7 0
-2 7 -11 0
-6 -1 -4 0
6 5 8 0
-5 -11 3 0
9 -5 1 0
6 7 5 0
7 8 -12 0
-3 -9 2 0
-11 3 6 0
8 13 3 0
-7 -11 -12 0
10 11 7 0
-13 -4 12 0
13 -9 8 0
-2 4 8 0
-8 11 -6 0
-8 -4 3 0
-12 -11 10 0
-5 -2 6 0
-10 5 -3 0
6 -4 2 0
1 13 10 0
-6 -1 -12 0
-12 6 8 0
-3 9 -7 0
-1 11 -13 0
5 -4 8 0
10 5 -11 0
8 -7 12 0
-5 9 7 0
1 7 -9 0
-10 12 -4 0
12 -10 -9 0
-13 9 5 0
-13 -8 -2 0
-3 -7 -2 0
-2 6 9 0
-1 10 -11 0
10 7 1 0
1 -5 4 0
3 5 -13 0
-12 -4 -6 0
1 6 -10 0
-8 -11 5 0
-2 5 -7 0
-11 5 -7 0
-8 4 7 0
3 1 -11 0
4 11 -9 0
-5 -10 6 0
-5 -7 1 0
-5 7 -11 0
-10 7 -9 0
13 -7 -8 0
